BLABLIBLU STP File, STP Format Version 1.0

SECTION Comments
Name "Ex5"
Creator "I"
Problem "Maximum Weight Connected Matching"
END

SECTION Graph
Nodes 3
Edges 3
E 1 2
E 1 3
E 2 3
END

SECTION Terminals
Terminals 3
T 1 1
T 2 1
T 3 1
END

EOF
